db/inputs/2765319066134319122122263862394415718.smt2
(set-logic QF_FP)
(declare-const x0 (_ FloatingPoint 11 53))
(declare-const x1 (_ FloatingPoint 11 53))
(declare-const x2 (_ FloatingPoint 11 53))
(declare-const x3 (_ FloatingPoint 11 53))
(declare-const x4 (_ FloatingPoint 11 53))
(declare-const x5 (_ FloatingPoint 11 53))
(declare-const x6 (_ FloatingPoint 11 53))
(declare-const x7 (_ FloatingPoint 11 53))
(declare-const x8 (_ FloatingPoint 11 53))
(declare-const x9 (_ FloatingPoint 11 53))
(declare-const x10 (_ FloatingPoint 11 53))
(declare-const x11 (_ FloatingPoint 11 53))
(assert (fp.geq (fp.mul RNE x0 x11) (fp.mul RNE x4 x9)))
(assert (fp.geq (fp.add RNE x7 x5) (fp.sub RNE x10 x5)))
(assert (fp.eq (fp.add RNE x2 x6) (fp.add RNE x1 x4)))
(assert (fp.lt (fp.sub RNE x7 x7) (fp.div RNE x1 x4)))
(assert (fp.gt (fp.neg x6) (fp.add RNE x11 x1)))
(assert (fp.lt (fp.mul RNE x5 x9) (fp.div RNE x0 x6)))
(assert (fp.geq (fp.sub RNE x6 x10) (fp.div RNE x4 x8)))
(assert (fp.gt (fp.sub RNE x2 x3) (fp.mul RNE x0 x10)))
(assert (fp.lt (fp.add RNE x6 x9) (fp.add RNE x6 x2)))
(check-sat)
