db/data/2765319066134319122122263862394415718.z3.out
-------------------
2500.158812940
